c CNF file corresponding to a (partial) station packing problem.
p cnf 1338 229
1 2 3 4 5 6 7 8 9 10 11 12 13 14 0
-1 -2 0
-1 -3 0
-1 -4 0
-1 -5 0
-1 -6 0
-1 -7 0
-1 -8 0
-1 -9 0
-1 -10 0
-1 -11 0
-1 -12 0
-1 -13 0
-1 -14 0
-2 -3 0
-2 -4 0
-2 -5 0
-2 -6 0
-2 -7 0
-2 -8 0
-2 -9 0
-2 -10 0
-2 -11 0
-2 -12 0
-2 -13 0
-2 -14 0
-3 -4 0
-3 -5 0
-3 -6 0
-3 -7 0
-3 -8 0
-3 -9 0
-3 -10 0
-3 -11 0
-3 -12 0
-3 -13 0
-3 -14 0
-4 -5 0
-4 -6 0
-4 -7 0
-4 -8 0
-4 -9 0
-4 -10 0
-4 -11 0
-4 -12 0
-4 -13 0
-4 -14 0
-5 -6 0
-5 -7 0
-5 -8 0
-5 -9 0
-5 -10 0
-5 -11 0
-5 -12 0
-5 -13 0
-5 -14 0
-6 -7 0
-6 -8 0
-6 -9 0
-6 -10 0
-6 -11 0
-6 -12 0
-6 -13 0
-6 -14 0
-7 -8 0
-7 -9 0
-7 -10 0
-7 -11 0
-7 -12 0
-7 -13 0
-7 -14 0
-8 -9 0
-8 -10 0
-8 -11 0
-8 -12 0
-8 -13 0
-8 -14 0
-9 -10 0
-9 -11 0
-9 -12 0
-9 -13 0
-9 -14 0
-10 -11 0
-10 -12 0
-10 -13 0
-10 -14 0
-11 -12 0
-11 -13 0
-11 -14 0
-12 -13 0
-12 -14 0
-13 -14 0
1322 1323 1324 1325 1326 1327 1328 1329 1330 1331 1332 1333 1334 1335 1336 1337 1338 0
-1322 -1323 0
-1322 -1324 0
-1322 -1325 0
-1322 -1326 0
-1322 -1327 0
-1322 -1328 0
-1322 -1329 0
-1322 -1330 0
-1322 -1331 0
-1322 -1332 0
-1322 -1333 0
-1322 -1334 0
-1322 -1335 0
-1322 -1336 0
-1322 -1337 0
-1322 -1338 0
-1323 -1324 0
-1323 -1325 0
-1323 -1326 0
-1323 -1327 0
-1323 -1328 0
-1323 -1329 0
-1323 -1330 0
-1323 -1331 0
-1323 -1332 0
-1323 -1333 0
-1323 -1334 0
-1323 -1335 0
-1323 -1336 0
-1323 -1337 0
-1323 -1338 0
-1324 -1325 0
-1324 -1326 0
-1324 -1327 0
-1324 -1328 0
-1324 -1329 0
-1324 -1330 0
-1324 -1331 0
-1324 -1332 0
-1324 -1333 0
-1324 -1334 0
-1324 -1335 0
-1324 -1336 0
-1324 -1337 0
-1324 -1338 0
-1325 -1326 0
-1325 -1327 0
-1325 -1328 0
-1325 -1329 0
-1325 -1330 0
-1325 -1331 0
-1325 -1332 0
-1325 -1333 0
-1325 -1334 0
-1325 -1335 0
-1325 -1336 0
-1325 -1337 0
-1325 -1338 0
-1326 -1327 0
-1326 -1328 0
-1326 -1329 0
-1326 -1330 0
-1326 -1331 0
-1326 -1332 0
-1326 -1333 0
-1326 -1334 0
-1326 -1335 0
-1326 -1336 0
-1326 -1337 0
-1326 -1338 0
-1327 -1328 0
-1327 -1329 0
-1327 -1330 0
-1327 -1331 0
-1327 -1332 0
-1327 -1333 0
-1327 -1334 0
-1327 -1335 0
-1327 -1336 0
-1327 -1337 0
-1327 -1338 0
-1328 -1329 0
-1328 -1330 0
-1328 -1331 0
-1328 -1332 0
-1328 -1333 0
-1328 -1334 0
-1328 -1335 0
-1328 -1336 0
-1328 -1337 0
-1328 -1338 0
-1329 -1330 0
-1329 -1331 0
-1329 -1332 0
-1329 -1333 0
-1329 -1334 0
-1329 -1335 0
-1329 -1336 0
-1329 -1337 0
-1329 -1338 0
-1330 -1331 0
-1330 -1332 0
-1330 -1333 0
-1330 -1334 0
-1330 -1335 0
-1330 -1336 0
-1330 -1337 0
-1330 -1338 0
-1331 -1332 0
-1331 -1333 0
-1331 -1334 0
-1331 -1335 0
-1331 -1336 0
-1331 -1337 0
-1331 -1338 0
-1332 -1333 0
-1332 -1334 0
-1332 -1335 0
-1332 -1336 0
-1332 -1337 0
-1332 -1338 0
-1333 -1334 0
-1333 -1335 0
-1333 -1336 0
-1333 -1337 0
-1333 -1338 0
-1334 -1335 0
-1334 -1336 0
-1334 -1337 0
-1334 -1338 0
-1335 -1336 0
-1335 -1337 0
-1335 -1338 0
-1336 -1337 0
-1336 -1338 0
-1337 -1338 0
